certificates/rado_a9_c119_N19.drat
-17 -19 0
d -17 -13 -19 0
-15 -18 -19 0
15 17 0
d 15 1 17 0
-15 -19 0
d -15 -3 -19 0
-19 0
-15 0
17 0
3 0
13 0
-1 0
-5 0
-11 0
12 0
-14 0
-10 0
-2 0
-6 0
7 0
8 0
18 0
9 0
4 0
0
